
******************************************************************************
This program contains Ipopt, a library for large-scale nonlinear optimization.
 Ipopt is released as open source code under the Eclipse Public License (EPL).
         For more information visit http://projects.coin-or.org/Ipopt
******************************************************************************

This is Ipopt version 3.12.6, running with linear solver ma57.

Number of nonzeros in equality constraint Jacobian...:       50
Number of nonzeros in inequality constraint Jacobian.:    58800
Number of nonzeros in Lagrangian Hessian.............:       50

Total number of variables............................:       50
                     variables with only lower bounds:        0
                variables with lower and upper bounds:       50
                     variables with only upper bounds:        0
Total number of equality constraints.................:       25
Total number of inequality constraints...............:    19600
        inequality constraints with only lower bounds:        0
   inequality constraints with lower and upper bounds:    19600
        inequality constraints with only upper bounds:        0

iter    objective    inf_pr   inf_du lg(mu)  ||d||  lg(rg) alpha_du alpha_pr  ls
   0  6.1996276e+01 9.70e-01 2.51e-03  -1.0 0.00e+00    -  0.00e+00 0.00e+00   0
   1  3.6393772e+01 0.00e+00 2.57e+01  -1.0 3.63e-01    -  3.63e-02 1.00e+00f  1
   2  3.4397048e+01 0.00e+00 9.03e-14  -1.0 9.14e-02    -  1.00e+00 1.00e+00f  1
   3  3.3858548e+01 0.00e+00 6.02e-15  -2.5 2.62e-02    -  1.00e+00 1.00e+00f  1
   4  2.9971435e+01 0.00e+00 2.17e-03  -3.8 2.88e-01    -  5.87e-01 1.00e+00f  1
   5  1.5432582e+01 0.00e+00 9.14e-04  -3.8 1.14e+00    -  5.54e-01 1.00e+00f  1
   6  2.8612530e+00 0.00e+00 1.31e-03  -5.7 1.28e+00    -  2.73e-01 1.00e+00f  1
   7  6.2141224e-01 0.00e+00 1.20e-04  -5.7 2.59e-01    -  9.07e-01 9.13e-01f  1
   8  5.1346829e-02 0.00e+00 4.84e-15  -5.7 6.44e-02    -  1.00e+00 1.00e+00f  1
   9  3.6218077e-02 0.00e+00 6.14e-15  -5.7 3.47e-03    -  1.00e+00 1.00e+00f  1
iter    objective    inf_pr   inf_du lg(mu)  ||d||  lg(rg) alpha_du alpha_pr  ls
  10  1.0162766e-04 0.00e+00 4.27e-15  -8.6 2.18e-03    -  1.00e+00 1.00e+00f  1
  11  1.7696163e-05 0.00e+00 3.33e-15  -9.0 7.30e-06    -  1.00e+00 1.00e+00f  1

Number of Iterations....: 11

                                   (scaled)                 (unscaled)
Objective...............:   1.7696162542473755e-05    1.7696162542473755e-05
Dual infeasibility......:   3.3327455232400801e-15    3.3327455232400801e-15
Constraint violation....:   0.0000000000000000e+00    0.0000000000000000e+00
Complementarity.........:   2.3384794092165942e-09    2.3384794092165942e-09
Overall NLP error.......:   2.3384794092165942e-09    2.3384794092165942e-09


Number of objective function evaluations             = 12
Number of objective gradient evaluations             = 12
Number of equality constraint evaluations            = 12
Number of inequality constraint evaluations          = 12
Number of equality constraint Jacobian evaluations   = 12
Number of inequality constraint Jacobian evaluations = 12
Number of Lagrangian Hessian evaluations             = 11
Total CPU secs in IPOPT (w/o function evaluations)   =      0.270
Total CPU secs in NLP function evaluations           =      0.050

EXIT: Optimal Solution Found.

************************ CUTEst statistics ************************


 Package used            :  IPOPT
 Problem                 :  DEGENQPC  
 # variables             =              50
 # constraints           =           19625
 # objective functions   =        0.2500000E+02
 # objective gradients   =        0.1300000E+02
 # objective Hessians    =        0.1200000E+02
 # Hessian-vector prdct  =        0.0000000E+00
 # constraints functions =        0.2600000E+02
 # constraints gradients =        0.1400000E+02
 # constraints Hessians  =        0.1200000E+02
 Exit code               =               0
 Final f                 =   0.1769616E-04
 Set up time             =            0.21 seconds
 Solve time              =            0.87 seconds


******************************************************************

System Time =       0.2179999948 s.
